p cnf 36 202
4 7 11 16 22 29 37 46 56 0
8 12 17 23 30 38 47 57 68 0
13 18 24 31 39 48 58 69 81 0
19 25 32 40 49 59 70 82 95 0
-4 -8 0
-7 -12 0
-11 -17 0
-16 -23 0
-22 -30 0
-29 -38 0
-37 -47 0
-46 -57 0
-56 -68 0
-4 -13 0
-7 -18 0
-11 -24 0
-16 -31 0
-22 -39 0
-29 -48 0
-37 -58 0
-46 -69 0
-56 -81 0
-4 -19 0
-7 -25 0
-11 -32 0
-16 -40 0
-22 -49 0
-29 -59 0
-37 -70 0
-46 -82 0
-56 -95 0
-8 -13 0
-12 -18 0
-17 -24 0
-23 -31 0
-30 -39 0
-38 -48 0
-47 -58 0
-57 -69 0
-68 -81 0
-8 -19 0
-12 -25 0
-17 -32 0
-23 -40 0
-30 -49 0
-38 -59 0
-47 -70 0
-57 -82 0
-68 -95 0
-13 -19 0
-18 -25 0
-24 -32 0
-31 -40 0
-39 -49 0
-48 -59 0
-58 -70 0
-69 -82 0
-81 -95 0
-4 -12 0
-4 -23 0
-4 -30 0
-4 -47 0
-7 -23 0
-7 -38 0
-7 -47 0
-11 -23 0
-11 -68 0
-22 -38 0
-22 -68 0
-37 -68 0
-4 -18 0
-4 -31 0
-4 -39 0
-4 -58 0
-7 -31 0
-7 -48 0
-7 -58 0
-11 -31 0
-11 -81 0
-22 -48 0
-22 -81 0
-37 -81 0
-4 -25 0
-4 -40 0
-4 -49 0
-4 -70 0
-7 -40 0
-7 -59 0
-7 -70 0
-11 -40 0
-11 -95 0
-22 -59 0
-22 -95 0
-37 -95 0
-8 -7 0
-8 -16 0
-8 -22 0
-8 -37 0
-12 -16 0
-12 -29 0
-12 -37 0
-17 -16 0
-17 -56 0
-30 -29 0
-30 -56 0
-47 -56 0
-8 -18 0
-8 -31 0
-8 -39 0
-8 -58 0
-12 -31 0
-12 -48 0
-12 -58 0
-17 -31 0
-17 -81 0
-30 -48 0
-30 -81 0
-47 -81 0
-8 -25 0
-8 -40 0
-8 -49 0
-8 -70 0
-12 -40 0
-12 -59 0
-12 -70 0
-17 -40 0
-17 -95 0
-30 -59 0
-30 -95 0
-47 -95 0
-13 -7 0
-13 -16 0
-13 -22 0
-13 -37 0
-18 -16 0
-18 -29 0
-18 -37 0
-24 -16 0
-24 -56 0
-39 -29 0
-39 -56 0
-58 -56 0
-13 -12 0
-13 -23 0
-13 -30 0
-13 -47 0
-18 -23 0
-18 -38 0
-18 -47 0
-24 -23 0
-24 -68 0
-39 -38 0
-39 -68 0
-58 -68 0
-13 -25 0
-13 -40 0
-13 -49 0
-13 -70 0
-18 -40 0
-18 -59 0
-18 -70 0
-24 -40 0
-24 -95 0
-39 -59 0
-39 -95 0
-58 -95 0
-19 -7 0
-19 -16 0
-19 -22 0
-19 -37 0
-25 -16 0
-25 -29 0
-25 -37 0
-32 -16 0
-32 -56 0
-49 -29 0
-49 -56 0
-70 -56 0
-19 -12 0
-19 -23 0
-19 -30 0
-19 -47 0
-25 -23 0
-25 -38 0
-25 -47 0
-32 -23 0
-32 -68 0
-49 -38 0
-49 -68 0
-70 -68 0
-19 -18 0
-19 -31 0
-19 -39 0
-19 -58 0
-25 -31 0
-25 -48 0
-25 -58 0
-32 -31 0
-32 -81 0
-49 -48 0
-49 -81 0
-70 -81 0
